This is Ipopt version 3.10.1, running with linear solver mumps.

Number of nonzeros in equality constraint Jacobian...:      141
Number of nonzeros in inequality constraint Jacobian.:        0
Number of nonzeros in Lagrangian Hessian.............:     2019

Total number of variables............................:       72
                     variables with only lower bounds:        0
                variables with lower and upper bounds:       72
                     variables with only upper bounds:        0
Total number of equality constraints.................:       47
Total number of inequality constraints...............:        0
        inequality constraints with only lower bounds:        0
   inequality constraints with lower and upper bounds:        0
        inequality constraints with only upper bounds:        0

iter    objective    inf_pr   inf_du lg(mu)  ||d||  lg(rg) alpha_du alpha_pr  ls
   0 -7.7442158e-04 1.47e-11 2.58e-03  -1.0 0.00e+00    -  0.00e+00 0.00e+00   0
   1 -8.0636502e-04 2.22e-16 3.20e-06  -1.7 1.65e-02    -  1.00e+00 1.00e+00f  1
   2 -8.7670970e-04 8.03e-11 1.64e-05  -2.5 4.03e-02    -  1.00e+00 1.00e+00f  1
   3 -1.0080021e-03 5.96e-12 1.72e-04  -3.8 2.55e-02    -  9.65e-01 1.00e+00f  1
   4 -1.5376988e-03 2.22e-16 5.99e-04  -5.7 6.13e-02  -2.0 8.44e-01 1.00e+00f  1
   5 -2.0456673e-03 2.22e-16 1.09e-03  -5.7 3.78e-02  -1.6 1.00e+00 1.00e+00f  1
   6 -2.3446978e-03 2.22e-16 1.23e-03  -5.7 1.71e-02  -1.1 1.00e+00 1.00e+00f  1
   7 -5.7012508e-03 1.33e-15 4.23e-03  -5.7 9.74e-02  -1.6 1.00e+00 1.00e+00f  1
   8 -6.6613264e-03 5.10e-13 4.60e-03  -5.7 1.01e-01  -1.2 1.00e+00 1.55e-01f  1
   9 -6.6538122e-03 5.10e-13 4.60e-03  -5.7 2.39e-01  -1.7 2.60e-02 4.88e-04f 12
iter    objective    inf_pr   inf_du lg(mu)  ||d||  lg(rg) alpha_du alpha_pr  ls
  10 -6.6448319e-03 5.10e-13 1.25e-02  -5.7 6.38e+00  -1.3 2.10e-02 6.18e-05f 12
  11 -1.7463520e-03 7.77e-16 2.07e-02  -5.7 2.03e-01  -1.7 1.87e-01 1.00e+00h  1
  12 -2.2812080e-03 3.16e-13 2.51e-02  -5.7 1.11e+03  -2.2 2.69e-04 3.48e-05f  3
  13 -5.9633996e-03 2.22e-16 4.52e-03  -5.7 1.17e-01  -1.8 1.00e+00 1.00e+00f  1
  14 -6.6114942e-03 4.83e-13 1.60e-02  -5.7 1.68e-01  -1.4 1.00e+00 6.16e-02f  1
  15 -7.2586121e-03 3.36e-13 4.31e-03  -5.7 3.29e-02  -0.9 1.00e+00 3.04e-01f  1
  16 -8.7732559e-03 3.15e-13 2.87e-02  -5.7 3.68e-01  -1.4 9.64e-01 6.19e-02f  1
  17 -1.1410185e-02 2.71e-12 5.95e-03  -5.7 5.29e-02  -1.0 1.00e+00 6.51e-01f  1
  18 -1.3461500e-02 2.14e-12 6.65e-03  -5.7 2.27e-02  -0.6 1.00e+00 1.00e+00f  1
  19 -1.4307128e-02 2.02e-12 1.87e-02  -5.7 1.42e-01  -1.0 1.00e+00 5.72e-02f  1
iter    objective    inf_pr   inf_du lg(mu)  ||d||  lg(rg) alpha_du alpha_pr  ls
  20 -1.5405550e-02 1.25e-12 7.91e-03  -5.7 3.55e-02  -0.6 1.00e+00 3.82e-01f  1
  21 -1.8799672e-02 1.05e-12 2.31e-02  -5.7 2.27e-01  -1.1 1.00e+00 1.55e-01f  1
  22 -2.4378634e-02 3.89e-12 1.18e-02  -5.7 5.57e-02  -0.7 1.00e+00 1.00e+00f  1
  23 -2.6697421e-02 4.34e-12 8.83e-02  -5.7 1.52e+00  -1.1 2.75e-01 1.10e-02f  1
  24 -3.0361294e-02 2.83e-12 2.07e-02  -5.7 7.91e-02  -0.7 1.00e+00 3.47e-01f  1
  25 -3.1809656e-02 3.07e-12 9.98e-02  -5.7 2.05e+00  -1.2 2.21e-01 6.21e-03f  1
  26 -3.6145344e-02 2.04e-12 2.57e-02  -5.7 9.94e-02  -0.8 1.00e+00 3.35e-01f  1
  27 -3.8405708e-02 1.98e-12 4.26e-02  -5.7 7.49e-01  -1.2 2.21e-01 3.15e-02f  1
  28 -4.6952428e-02 6.81e-12 1.50e-02  -5.7 8.11e-02  -0.8 1.00e+00 6.73e-01f  1
  29 -4.8562000e-02 4.37e-12 1.99e-02  -5.7 3.33e-02  -0.4 1.00e+00 3.58e-01f  1
iter    objective    inf_pr   inf_du lg(mu)  ||d||  lg(rg) alpha_du alpha_pr  ls
  30 -5.5648937e-02 2.92e-12 3.36e-02  -5.7 1.49e-01  -0.9 1.00e+00 3.32e-01f  1
  31 -5.6326497e-02 2.73e-12 2.85e-02  -5.7 6.76e-01  -1.3 1.08e-01 6.51e-02f  1
  32 -5.8206435e-02 2.47e-12 4.39e-02  -5.7 1.79e-01  -0.9 1.00e+00 9.74e-02f  1
  33 -6.4567629e-02 9.47e-12 1.72e-02  -5.7 5.32e-02  -0.5 8.72e-01 1.00e+00f  1
  34 -6.6416493e-02 9.98e-12 7.16e-02  -5.7 2.72e-01  -1.0 1.00e+00 5.40e-02f  1
  35 -7.1538966e-02 2.18e-12 1.87e-02  -5.7 6.52e-02  -0.5 9.59e-01 7.81e-01f  1
  36 -7.4861282e-02 1.88e-12 4.60e-02  -5.7 2.27e-01  -1.0 1.00e+00 1.40e-01f  1
  37 -8.0081233e-02 1.70e-12 3.08e-02  -5.7 7.13e-01  -1.5 3.21e-02 9.12e-02f  1
  38 -8.3411621e-02 2.80e-12 3.14e-02  -5.7 1.67e-01  -1.1 1.00e+00 1.80e-01f  1
  39 -8.5348069e-02 3.35e-12 1.48e-02  -5.7 4.89e-02  -0.6 1.00e+00 2.93e-01f  1
iter    objective    inf_pr   inf_du lg(mu)  ||d||  lg(rg) alpha_du alpha_pr  ls
  40 -8.8719591e-02 5.25e-12 2.09e-02  -5.7 9.92e-02  -1.1 6.64e-01 3.56e-01f  1
  41 -9.2169093e-02 3.98e-12 8.05e-03  -5.7 3.82e-02  -0.7 1.00e+00 9.75e-01f  1
  42 -9.7028047e-02 7.95e-12 1.16e-02  -5.7 1.45e-01  -1.2 1.63e-01 3.24e-01f  1
  43 -9.7279869e-02 6.53e-12 1.93e-02  -5.7 2.40e-01  -1.6 4.41e-01 1.79e-01f  1
  44 -9.7258719e-02 6.38e-12 1.87e-02  -5.7 5.72e-01  -2.1 2.61e-02 2.37e-02f  2
  45 -9.7881122e-02 5.71e-12 3.50e-02  -5.7 6.75e-02  -0.8 1.00e+00 1.47e-01f  1
  46 -9.7871756e-02 5.67e-12 3.71e-02  -5.7 2.15e-01    -  6.48e-01 6.62e-03f  7
  47 -9.6893897e-02 5.13e-12 3.35e-02  -5.7 2.88e-01  -1.3 8.96e-02 9.60e-02h  1
  48 -9.7023054e-02 2.32e-13 1.65e-02  -5.7 2.04e-01  -1.7 6.93e-01 9.55e-01f  1
  49 -9.7002693e-02 1.75e-13 4.61e-02  -5.7 1.48e-01    -  9.52e-01 2.44e-01f  2
iter    objective    inf_pr   inf_du lg(mu)  ||d||  lg(rg) alpha_du alpha_pr  ls
  50 -9.7250633e-02 1.20e-14 2.23e-03  -5.7 1.05e-01    -  1.00e+00 9.31e-01f  1
  51 -9.7403367e-02 3.89e-15 2.47e-03  -5.7 1.74e-02  -1.3 1.74e-01 6.83e-01f  1
  52 -9.7773453e-02 3.77e-15 4.83e-03  -5.7 9.61e+00  -1.8 2.47e-03 3.46e-03f  1
  53 -9.7765894e-02 3.77e-15 1.63e-02  -5.7 6.94e-02    -  1.00e+00 9.19e-03f  7
  54 -9.7388044e-02 2.00e-15 9.38e-03  -5.7 1.04e-01  -2.3 4.56e-01 4.41e-01h  1
  55 -9.7340391e-02 1.55e-15 8.75e-03  -5.7 2.60e-02    -  2.14e-02 2.50e-01f  3
  56 -9.7325248e-02 8.88e-16 3.74e-03  -5.7 2.93e-02    -  1.00e+00 4.86e-01h  1
  57 -9.9445474e-02 2.22e-16 3.01e-02  -5.7 1.25e-01  -1.8 3.86e-02 9.90e-01f  1
  58 -9.9434799e-02 2.22e-16 2.92e-02  -5.7 1.08e-01  -2.3 9.20e-01 1.98e-03f  9
  59 -9.7717059e-02 4.44e-16 1.61e-02  -5.7 9.51e-02  -2.8 4.66e-01 4.66e-01s 21
iter    objective    inf_pr   inf_du lg(mu)  ||d||  lg(rg) alpha_du alpha_pr  ls
  60 -9.7482538e-02 1.89e-15 1.17e-02  -5.7 7.87e-02  -3.3 2.77e-01 2.77e-01s 21
  61 -9.7338532e-02 8.88e-16 6.25e-03  -5.7 3.91e-02    -  4.64e-01 4.64e-01s 21
  62 -9.7306766e-02 8.88e-16 1.67e-03  -5.7 3.23e-02    -  7.35e-01 7.35e-01s 21
Restoration phase is called at point that is almost feasible,
  with constraint violation 2.997602e-15. Abort.

Number of Iterations....: 62

                                   (scaled)                 (unscaled)
Objective...............:  -9.7306766279992726e-02   -9.7306766279992726e-02
Dual infeasibility......:   1.6670663514741504e-03    1.6670663514741504e-03
Constraint violation....:   8.8817841970012523e-16    8.8817841970012523e-16
Complementarity.........:   3.5531891721792282e-06    3.5531891721792282e-06
Overall NLP error.......:   1.6670663514741504e-03    1.6670663514741504e-03


Number of objective function evaluations             = 135
Number of objective gradient evaluations             = 64
Number of equality constraint evaluations            = 135
Number of inequality constraint evaluations          = 0
Number of equality constraint Jacobian evaluations   = 1
Number of inequality constraint Jacobian evaluations = 0
Number of Lagrangian Hessian evaluations             = 63
Total CPU secs in IPOPT (w/o function evaluations)   =      0.120
Total CPU secs in NLP function evaluations           =      1.360

EXIT: Restoration Failed!
